row=10;
column=10;
Board=[|3,3,3,3,3,0,0,0,0,5|0,3,0,0,0,2,1,0,3,0|0,3,0,0,2,2,0,0,0,1|3,2,0,0,0,5,1,0,1,1|2,2,1,0,0,0,1,0,1,1|2,0,0,1,0,0,0,0,1,1|2,0,1,1,1,5,1,0,1,1|2,1,0,1,1,0,0,0,0,0|3,1,1,0,1,0,0,0,0,0|0,1,0,1,0,0,0,0,1,0|];
right = [2,2,1,1,0,1,1,1,1,1];
bottom = [0,1,1,2,1,2,1,1,1,1];
